\ENCODING=ISO-8859-1
\Problem name: c138v228i0o34

Minimize
 obj: 5 x1 + 5 x2 + 5 x3 + 5 x4 + 5 x5 + 5 x6 + 15 x7 + 15 x8 + 15 x9 + 15 x10
      + 15 x11 + 15 x12 + 30 x13 + 30 x14 + 30 x15 + 30 x16 + 30 x17 + 30 x18
      + 800 x107 + 800 x108 + 800 x109 + 800 x110 + 500 x111 + 500 x112
      + 500 x113 + 500 x114 + 500 x115 + 500 x116 + 250 x117 + 250 x118
      + 250 x119 + 250 x120 + 250 x121 + 250 x122
Subject To
 c1:   x95 - x111 + x127  = 0
 c2:   x101 - x117 + x133  = 0
 c3:   x91 - x107 + x123  = 1
 c4:   - x91 + x92 - x108 + x124  = 0
 c5:   - x92 + x93 - x109 + x125  = 0
 c6:   - x93 + x94 - x110 + x126  = 0
 c7:   - x95 + x96 - x112 + x128  = 0
 c8:   - x96 + x97 - x113 + x129  = 0
 c9:   - x97 + x98 - x114 + x130  = 0
 c10:  - x98 + x99 - x115 + x131  = 0
 c11:  - x99 + x100 - x116 + x132  = 0
 c12:  - x101 + x102 - x118 + x134  = 0
 c13:  - x102 + x103 - x119 + x135  = 0
 c14:  - x103 + x104 - x120 + x136  = 0
 c15:  - x104 + x105 - x121 + x137  = 0
 c16:  - x105 + x106 - x122 + x138  = 0
 c17:  x1 - x55  = 80
 c18:  x2 - x56  = 80
 c19:  x3 - x57 - 80 x91  = 0
 c20:  x4 - x58 - 80 x92  = 0
 c21:  x5 - x59 - 80 x93  = 0
 c22:  x6 - x60 - 80 x94  = 0
 c23:  x7 - x61 - 50 x95  = 0
 c24:  x8 - x62 - 50 x96  = 0
 c25:  x9 - x63 - 50 x97  = 0
 c26:  x10 - x64 - 50 x98  = 0
 c27:  x11 - x65 - 50 x99  = 0
 c28:  x12 - x66 - 50 x100  = 0
 c29:  x13 - x67 - 30 x101  = 0
 c30:  x14 - x68 - 30 x102  = 0
 c31:  x15 - x69 - 30 x103  = 0
 c32:  x16 - x70 - 30 x104  = 0
 c33:  x17 - x71 - 30 x105  = 0
 c34:  x18 - x72 - 30 x106  = 0
 c35:  x1 - x55  = 80
 c36:  x2 - x56  = 80
 c37:  x3 - x57 - 80 x91  = 0
 c38:  x4 - x58 - 80 x92  = 0
 c39:  x5 - x59 - 80 x93  = 0
 c40:  x6 - x60 - 80 x94  = 0
 c41:  x7 - x61 - 50 x95  = 0
 c42:  x8 - x62 - 50 x96  = 0
 c43:  x9 - x63 - 50 x97  = 0
 c44:  x10 - x64 - 50 x98  = 0
 c45:  x11 - x65 - 50 x99  = 0
 c46:  x12 - x66 - 50 x100  = 0
 c47:  x13 - x67 - 30 x101  = 0
 c48:  x14 - x68 - 30 x102  = 0
 c49:  x15 - x69 - 30 x103  = 0
 c50:  x16 - x70 - 30 x104  = 0
 c51:  x17 - x71 - 30 x105  = 0
 c52:  x18 - x72 - 30 x106  = 0
 c53:  x37 - x55 - x73  = 0
 c54:  x38 - x56 - x74  = 0
 c55:  x39 - x57 - x75  = 0
 c56:  x40 - x58 - x76  = 0
 c57:  x41 - x59 - x77  = 0
 c58:  x42 - x60 - x78  = 0
 c59:  x43 - x61 - x79  = 0
 c60:  x44 - x62 - x80  = 0
 c61:  x45 - x63 - x81  = 0
 c62:  x46 - x64 - x82  = 0
 c63:  x47 - x65 - x83  = 0
 c64:  x48 - x66 - x84  = 0
 c65:  x49 - x67 - x85  = 0
 c66:  x50 - x68 - x86  = 0
 c67:  x51 - x69 - x87  = 0
 c68:  x52 - x70 - x88  = 0
 c69:  x53 - x71 - x89  = 0
 c70:  x54 - x72 - x90  = 0
 c71:  - x1 + x19 - x73  = 0
 c72:  - x2 + x20 - x74  = 0
 c73:  - x3 + x21 - x75  = 0
 c74:  - x4 + x22 - x76  = 0
 c75:  - x5 + x23 - x77  = 0
 c76:  - x6 + x24 - x78  = 0
 c77:  - x7 + x25 - x79  = 0
 c78:  - x8 + x26 - x80  = 0
 c79:  - x9 + x27 - x81  = 0
 c80:  - x10 + x28 - x82  = 0
 c81:  - x11 + x29 - x83  = 0
 c82:  - x12 + x30 - x84  = 0
 c83:  - x13 + x31 - x85  = 0
 c84:  - x14 + x32 - x86  = 0
 c85:  - x15 + x33 - x87  = 0
 c86:  - x16 + x34 - x88  = 0
 c87:  - x17 + x35 - x89  = 0
 c88:  - x18 + x36 - x90  = 0
 c89:  x1 - x19 <= 0
 c90:  x2 - x20 <= 0
 c91:  x3 - x21 <= 0
 c92:  x4 - x22 <= 0
 c93:  x5 - x23 <= 0
 c94:  x6 - x24 <= 0
 c95:  x7 - x25 <= 0
 c96:  x8 - x26 <= 0
 c97:  x9 - x27 <= 0
 c98:  x10 - x28 <= 0
 c99:  x11 - x29 <= 0
 c100: x12 - x30 <= 0
 c101: x13 - x31 <= 0
 c102: x14 - x32 <= 0
 c103: x15 - x33 <= 0
 c104: x16 - x34 <= 0
 c105: x17 - x35 <= 0
 c106: x18 - x36 <= 0
 c107: - x37 + x55 <= 0
 c108: - x38 + x56 <= 0
 c109: - x39 + x57 <= 0
 c110: - x40 + x58 <= 0
 c111: - x41 + x59 <= 0
 c112: - x42 + x60 <= 0
 c113: - x43 + x61 <= 0
 c114: - x44 + x62 <= 0
 c115: - x45 + x63 <= 0
 c116: - x46 + x64 <= 0
 c117: - x47 + x65 <= 0
 c118: - x48 + x66 <= 0
 c119: - x49 + x67 <= 0
 c120: - x50 + x68 <= 0
 c121: - x51 + x69 <= 0
 c122: - x52 + x70 <= 0
 c123: - x53 + x71 <= 0
 c124: - x54 + x72 <= 0
 c125: x55 + x73 <= 220
 c126: x56 + x74 + 220 x123 <= 220
 c127: x57 + x75 - 220 x91 + 200 x107 + 220 x124 <= 0
 c128: x58 + x76 - 220 x92 + 200 x108 + 220 x125 <= 0
 c129: x59 + x77 - 220 x93 + 200 x109 + 220 x126 <= 0
 c130: x61 + x79 - 150 x95 + 130 x111 + 150 x128 <= 0
 c131: x62 + x80 - 150 x96 + 130 x112 + 150 x129 <= 0
 c132: x63 + x81 - 150 x97 + 130 x113 + 150 x130 <= 0
 c133: x64 + x82 - 150 x98 + 130 x114 + 150 x131 <= 0
 c134: x65 + x83 - 150 x99 + 130 x115 + 150 x132 <= 0
 c135: x67 + x85 - 70 x101 + 60 x117 <= 0
 c136: x68 + x86 - 70 x102 + 60 x118 <= 0
 c137: x69 + x87 - 70 x103 + 60 x119 <= 0
 c138: x70 + x88 - 70 x104 + 60 x120 <= 0
 c139: x71 + x89 - 70 x105 + 60 x121 <= 0
 c140: x72 + x90 - 70 x106 + 60 x122 <= 0
 c141: x67 + x85 - 70 x101 + 70 x134 <= 0
 c142: x68 + x86 - 70 x102 + 70 x135 <= 0
 c143: x69 + x87 - 70 x103 + 70 x136 <= 0
 c144: x70 + x88 - 70 x104 + 70 x137 <= 0
 c145: x71 + x89 - 70 x105 + 70 x138 <= 0
 c146: - x55 + x56 <= 50
 c147: - x56 + x57 - 50 x91 + 30 x107 <= 0
 c148: - x57 + x58 - 50 x92 + 30 x108 <= 0
 c149: - x58 + x59 - 50 x93 + 30 x109 <= 0
 c150: - x59 + x60 - 50 x94 + 30 x110 <= 0
 c151: - x61 + x62 - 60 x96 + 40 x112 <= 0
 c152: - x62 + x63 - 60 x97 + 40 x113 <= 0
 c153: - x63 + x64 - 60 x98 + 40 x114 <= 0
 c154: - x64 + x65 - 60 x99 + 40 x115 <= 0
 c155: - x65 + x66 - 60 x100 + 40 x116 <= 0
 c156: - x67 + x68 - 70 x102 + 60 x118 <= 0
 c157: - x68 + x69 - 70 x103 + 60 x119 <= 0
 c158: - x69 + x70 - 70 x104 + 60 x120 <= 0
 c159: - x70 + x71 - 70 x105 + 60 x121 <= 0
 c160: - x71 + x72 - 70 x106 + 60 x122 <= 0
 c161: x61 - 60 x95 + 40 x111 <= 0
 c162: x67 - 70 x101 + 60 x117 <= 0
 c163: x55 - x56 <= 30
 c164: x56 - x57 + 30 x123 <= 30
 c165: x57 - x58 - 30 x91 + 30 x124 <= 0
 c166: x58 - x59 - 30 x92 + 30 x125 <= 0
 c167: x59 - x60 - 30 x93 + 30 x126 <= 0
 c168: x61 - x62 - 40 x95 + 40 x128 <= 0
 c169: x62 - x63 - 40 x96 + 40 x129 <= 0
 c170: x63 - x64 - 40 x97 + 40 x130 <= 0
 c171: x64 - x65 - 40 x98 + 40 x131 <= 0
 c172: x65 - x66 - 40 x99 + 40 x132 <= 0
 c173: x67 - x68 - 50 x101 + 50 x134 <= 0
 c174: x68 - x69 - 50 x102 + 50 x135 <= 0
 c175: x69 - x70 - 50 x103 + 50 x136 <= 0
 c176: x70 - x71 - 50 x104 + 50 x137 <= 0
 c177: x71 - x72 - 50 x105 + 50 x138 <= 0
 c178: - x61 + 40 x127 <= 0
 c179: - x67 + 50 x133 <= 0
 c180: x1 + x7 + x13  = 240
 c181: x2 + x8 + x14  = 250
 c182: x3 + x9 + x15  = 200
 c183: x4 + x10 + x16  = 170
 c184: x5 + x11 + x17  = 230
 c185: x6 + x12 + x18  = 190
 c186: x19 + x25 + x31 >= 240
 c187: x20 + x26 + x32 >= 260
 c188: x21 + x27 + x33 >= 210
 c189: x22 + x28 + x34 >= 180
 c190: x23 + x29 + x35 >= 240
 c191: x24 + x30 + x36 >= 200
 c192: x74 + x80 + x86 >= 10
 c193: x75 + x81 + x87 >= 10
 c194: x76 + x82 + x88 >= 10
 c195: x77 + x83 + x89 >= 10
 c196: x78 + x84 + x90 >= 10
 c197: - x91 + x107 <= 0
 c198: - x92 + x107 + x108 <= 0
 c199: - x93 + x107 + x108 + x109 <= 0
 c200: - x94 + x108 + x109 + x110 <= 0
 c201: - x96 + x111 + x112 <= 0
 c202: - x97 + x112 + x113 <= 0
 c203: - x98 + x113 + x114 <= 0
 c204: - x99 + x114 + x115 <= 0
 c205: - x100 + x115 + x116 <= 0
 c206: - x101 + x117 <= 0
 c207: - x102 + x118 <= 0
 c208: - x103 + x119 <= 0
 c209: - x104 + x120 <= 0
 c210: - x105 + x121 <= 0
 c211: - x106 + x122 <= 0
 c212: x91 + x123 <= 1
 c213: x92 + x123 + x124 <= 1
 c214: x93 + x124 + x125 <= 1
 c215: x94 + x125 + x126 <= 1
 c216: x96 + x127 + x128 <= 1
 c217: x97 + x128 + x129 <= 1
 c218: x98 + x129 + x130 <= 1
 c219: x99 + x130 + x131 <= 1
 c220: x100 + x131 + x132 <= 1
 c221: x102 + x133 + x134 <= 1
 c222: x103 + x134 + x135 <= 1
 c223: x104 + x135 + x136 <= 1
 c224: x105 + x136 + x137 <= 1
 c225: x106 + x137 + x138 <= 1
 c226: x107 + x108 + x109 + x110 <= 1
 c227: x111 + x112 + x113 + x114 + x115 + x116 <= 1
 c228: x117 + x118 + x119 + x120 + x121 + x122 <= 1
Bounds
 10 <= x55 <= 90
 0 <= x91 <= 1
 0 <= x92 <= 1
 0 <= x93 <= 1
 0 <= x94 <= 1
 0 <= x95 <= 1
 0 <= x96 <= 1
 0 <= x97 <= 1
 0 <= x98 <= 1
 0 <= x99 <= 1
 0 <= x100 <= 1
 0 <= x101 <= 1
 0 <= x102 <= 1
 0 <= x103 <= 1
 0 <= x104 <= 1
 0 <= x105 <= 1
 0 <= x106 <= 1
 0 <= x107 <= 1
 0 <= x108 <= 1
 0 <= x109 <= 1
 0 <= x110 <= 1
 0 <= x111 <= 1
 0 <= x112 <= 1
 0 <= x113 <= 1
 0 <= x114 <= 1
 0 <= x115 <= 1
 0 <= x116 <= 1
 0 <= x117 <= 1
 0 <= x118 <= 1
 0 <= x119 <= 1
 0 <= x120 <= 1
 0 <= x121 <= 1
 0 <= x122 <= 1
 0 <= x123 <= 1
 0 <= x124 <= 1
 0 <= x125 <= 1
 0 <= x126 <= 1
 0 <= x127 <= 1
 0 <= x128 <= 1
 0 <= x129 <= 1
 0 <= x130 <= 1
 0 <= x131 <= 1
 0 <= x132 <= 1
 0 <= x133 <= 1
 0 <= x134 <= 1
 0 <= x135 <= 1
 0 <= x136 <= 1
 0 <= x137 <= 1
 0 <= x138 <= 1
Binaries
 x91  x92  x93  x94  x95  x96  x97  x98  x99  x100  x101  x102  x103  x104 
 x105  x106  x107  x108  x109  x110  x111  x112  x113  x114  x115  x116  x117 
 x118  x119  x120  x121  x122  x123  x124  x125  x126  x127  x128  x129  x130 
 x131  x132  x133  x134  x135  x136  x137  x138 
End
